-1 1 0.0
535 2 1.0
776 3 1.0
1 4 1.0
755 5 1.0
782 6 1.0
468 7 1.0
445 8 1.0
316 9 1.0
52 10 1.0
979 11 1.0
535 12 1.0
884 13 1.0
500 14 1.0
755 15 1.0
949 16 1.0
622 17 1.0
52 18 1.0
316 19 1.0
75 20 1.0
430 21 1.0
715 22 1.0
865 23 1.0
776 24 1.0
831 25 1.0
601 26 1.0
75 27 1.0
165 28 1.0
181 29 1.0
755 30 1.0
43 31 1.0
773 32 1.0
887 33 1.0
339 34 1.0
81 35 1.0
162 36 1.0
948 37 1.0
622 38 1.0
876 39 1.0
430 40 1.0
773 41 1.0
445 42 1.0
790 43 1.0
283 44 1.0
181 45 1.0
613 46 1.0
316 47 1.0
500 48 1.0
600 49 1.0
831 50 1.0
600 51 1.0
1 52 1.0
310 53 1.0
445 54 1.0
316 55 1.0
755 56 1.0
220 57 1.0
601 58 1.0
430 59 1.0
310 60 1.0
823 61 1.0
844 62 1.0
310 63 1.0
331 64 1.0
865 65 1.0
773 66 1.0
223 67 1.0
772 68 1.0
419 69 1.0
601 70 1.0
561 71 1.0
601 72 1.0
500 73 1.0
419 74 1.0
297 75 1.0
645 76 1.0
388 77 1.0
601 78 1.0
773 79 1.0
790 80 1.0
884 81 1.0
372 82 1.0
382 83 1.0
316 84 1.0
782 85 1.0
522 86 1.0
468 87 1.0
813 88 1.0
776 89 1.0
233 90 1.0
522 91 1.0
310 92 1.0
979 93 1.0
201 94 1.0
419 95 1.0
201 96 1.0
220 97 1.0
339 98 1.0
419 99 1.0
555 100 1.0
419 101 1.0
310 102 1.0
823 103 1.0
316 104 1.0
316 105 1.0
949 106 1.0
223 107 1.0
786 108 1.0
310 109 1.0
773 110 1.0
776 111 1.0
223 112 1.0
831 113 1.0
419 114 1.0
201 115 1.0
773 116 1.0
773 117 1.0
773 118 1.0
561 119 1.0
181 120 1.0
310 121 1.0
286 122 1.0
522 123 1.0
755 124 1.0
419 125 1.0
948 126 1.0
641 127 1.0
430 128 1.0
715 129 1.0
917 130 1.0
786 131 1.0
445 132 1.0
561 133 1.0
600 134 1.0
316 135 1.0
876 136 1.0
865 137 1.0
522 138 1.0
331 139 1.0
831 140 1.0
522 141 1.0
430 142 1.0
813 143 1.0
1 144 1.0
339 145 1.0
876 146 1.0
601 147 1.0
561 148 1.0
790 149 1.0
331 150 1.0
782 151 1.0
1 152 1.0
316 153 1.0
523 154 1.0
316 155 1.0
948 156 1.0
790 157 1.0
316 158 1.0
419 159 1.0
636 160 1.0
522 161 1.0
670 162 1.0
522 163 1.0
200 164 1.0
772 165 1.0
786 166 1.0
561 167 1.0
831 168 1.0
500 169 1.0
64 170 1.0
316 171 1.0
569 172 1.0
790 173 1.0
538 174 1.0
622 175 1.0
786 176 1.0
316 177 1.0
481 178 1.0
75 179 1.0
522 180 1.0
831 181 1.0
763 182 1.0
468 183 1.0
782 184 1.0
786 185 1.0
52 186 1.0
968 187 1.0
500 188 1.0
776 189 1.0
1 190 1.0
600 191 1.0
773 192 1.0
823 193 1.0
790 194 1.0
139 195 1.0
613 196 1.0
43 197 1.0
876 198 1.0
600 199 1.0
201 200 1.0
776 201 1.0
331 202 1.0
786 203 1.0
52 204 1.0
876 205 1.0
968 206 1.0
773 207 1.0
139 208 1.0
790 209 1.0
75 210 1.0
316 211 1.0
755 212 1.0
813 213 1.0
316 214 1.0
782 215 1.0
500 216 1.0
64 217 1.0
220 218 1.0
500 219 1.0
917 220 1.0
316 221 1.0
823 222 1.0
220 223 1.0
715 224 1.0
316 225 1.0
782 226 1.0
430 227 1.0
786 228 1.0
763 229 1.0
500 230 1.0
64 231 1.0
52 232 1.0
948 233 1.0
823 234 1.0
388 235 1.0
522 236 1.0
310 237 1.0
600 238 1.0
979 239 1.0
310 240 1.0
755 241 1.0
715 242 1.0
468 243 1.0
445 244 1.0
500 245 1.0
755 246 1.0
823 247 1.0
139 248 1.0
500 249 1.0
773 250 1.0
139 251 1.0
622 252 1.0
773 253 1.0
331 254 1.0
52 255 1.0
233 256 1.0
601 257 1.0
561 258 1.0
297 259 1.0
430 260 1.0
1 261 1.0
233 262 1.0
782 263 1.0
43 264 1.0
600 265 1.0
561 266 1.0
419 267 1.0
823 268 1.0
782 269 1.0
601 270 1.0
201 271 1.0
876 272 1.0
331 273 1.0
782 274 1.0
823 275 1.0
181 276 1.0
782 277 1.0
331 278 1.0
773 279 1.0
876 280 1.0
876 281 1.0
823 282 1.0
419 283 1.0
139 284 1.0
773 285 1.0
41 286 1.0
233 287 1.0
823 288 1.0
181 289 1.0
773 290 1.0
773 291 1.0
622 292 1.0
601 293 1.0
772 294 1.0
310 295 1.0
876 296 1.0
561 297 1.0
500 298 1.0
201 299 1.0
445 300 1.0
773 301 1.0
233 302 1.0
622 303 1.0
233 304 1.0
569 305 1.0
445 306 1.0
297 307 1.0
773 308 1.0
763 309 1.0
522 310 1.0
773 311 1.0
823 312 1.0
600 313 1.0
786 314 1.0
316 315 1.0
1 316 1.0
755 317 1.0
591 318 1.0
979 319 1.0
52 320 1.0
865 321 1.0
75 322 1.0
139 323 1.0
786 324 1.0
430 325 1.0
600 326 1.0
500 327 1.0
786 328 1.0
233 329 1.0
786 330 1.0
1 331 1.0
876 332 1.0
786 333 1.0
782 334 1.0
948 335 1.0
876 336 1.0
1 337 1.0
52 338 1.0
959 339 1.0
773 340 1.0
316 341 1.0
601 342 1.0
75 343 1.0
500 344 1.0
755 345 1.0
888 346 1.0
52 347 1.0
773 348 1.0
821 349 1.0
600 350 1.0
388 351 1.0
388 352 1.0
601 353 1.0
201 354 1.0
884 355 1.0
622 356 1.0
310 357 1.0
75 358 1.0
622 359 1.0
52 360 1.0
807 361 1.0
297 362 1.0
523 363 1.0
823 364 1.0
52 365 1.0
316 366 1.0
331 367 1.0
917 368 1.0
316 369 1.0
419 370 1.0
297 371 1.0
122 372 1.0
823 373 1.0
715 374 1.0
979 375 1.0
755 376 1.0
52 377 1.0
790 378 1.0
821 379 1.0
500 380 1.0
388 381 1.0
306 382 1.0
64 383 1.0
52 384 1.0
310 385 1.0
755 386 1.0
75 387 1.0
75 388 1.0
522 389 1.0
636 390 1.0
782 391 1.0
522 392 1.0
776 393 1.0
52 394 1.0
773 395 1.0
220 396 1.0
979 397 1.0
1 398 1.0
786 399 1.0
790 400 1.0
942 401 1.0
310 402 1.0
636 403 1.0
522 404 1.0
52 405 1.0
522 406 1.0
297 407 1.0
561 408 1.0
948 409 1.0
1 410 1.0
776 411 1.0
52 412 1.0
782 413 1.0
670 414 1.0
492 415 1.0
968 416 1.0
331 417 1.0
201 418 1.0
782 419 1.0
52 420 1.0
500 421 1.0
233 422 1.0
75 423 1.0
831 424 1.0
43 425 1.0
139 426 1.0
331 427 1.0
917 428 1.0
982 429 1.0
316 430 1.0
331 431 1.0
613 432 1.0
763 433 1.0
763 434 1.0
64 435 1.0
331 436 1.0
622 437 1.0
617 438 1.0
388 439 1.0
181 440 1.0
481 441 1.0
636 442 1.0
600 443 1.0
52 444 1.0
601 445 1.0
139 446 1.0
600 447 1.0
786 448 1.0
561 449 1.0
445 450 1.0
181 451 1.0
561 452 1.0
430 453 1.0
823 454 1.0
310 455 1.0
600 456 1.0
786 457 1.0
636 458 1.0
773 459 1.0
201 460 1.0
569 461 1.0
339 462 1.0
823 463 1.0
776 464 1.0
522 465 1.0
316 466 1.0
876 467 1.0
979 468 1.0
297 469 1.0
823 470 1.0
790 471 1.0
715 472 1.0
81 473 1.0
622 474 1.0
52 475 1.0
430 476 1.0
763 477 1.0
636 478 1.0
948 479 1.0
773 480 1.0
982 481 1.0
876 482 1.0
982 483 1.0
601 484 1.0
297 485 1.0
755 486 1.0
81 487 1.0
331 488 1.0
139 489 1.0
823 490 1.0
52 491 1.0
449 492 1.0
233 493 1.0
786 494 1.0
1 495 1.0
430 496 1.0
1 497 1.0
331 498 1.0
310 499 1.0
1 500 1.0
888 501 1.0
1 502 1.0
600 503 1.0
776 504 1.0
982 505 1.0
995 506 1.0
622 507 1.0
522 508 1.0
223 509 1.0
715 510 1.0
979 511 1.0
876 512 1.0
790 513 1.0
959 514 1.0
316 515 1.0
773 516 1.0
786 517 1.0
181 518 1.0
834 519 1.0
181 520 1.0
419 521 1.0
1 522 1.0
549 523 1.0
993 524 1.0
419 525 1.0
310 526 1.0
823 527 1.0
139 528 1.0
613 529 1.0
755 530 1.0
942 531 1.0
339 532 1.0
430 533 1.0
316 534 1.0
445 535 1.0
1 536 1.0
445 537 1.0
523 538 1.0
831 539 1.0
823 540 1.0
776 541 1.0
569 542 1.0
52 543 1.0
782 544 1.0
622 545 1.0
959 546 1.0
331 547 1.0
331 548 1.0
815 549 1.0
782 550 1.0
622 551 1.0
500 552 1.0
823 553 1.0
445 554 1.0
233 555 1.0
445 556 1.0
316 557 1.0
823 558 1.0
782 559 1.0
623 560 1.0
636 561 1.0
468 562 1.0
316 563 1.0
790 564 1.0
600 565 1.0
316 566 1.0
75 567 1.0
388 568 1.0
233 569 1.0
331 570 1.0
601 571 1.0
522 572 1.0
52 573 1.0
773 574 1.0
865 575 1.0
52 576 1.0
636 577 1.0
220 578 1.0
1 579 1.0
876 580 1.0
790 581 1.0
220 582 1.0
561 583 1.0
865 584 1.0
1 585 1.0
388 586 1.0
52 587 1.0
823 588 1.0
506 589 1.0
233 590 1.0
201 591 1.0
790 592 1.0
310 593 1.0
52 594 1.0
1 595 1.0
331 596 1.0
600 597 1.0
339 598 1.0
786 599 1.0
316 600 1.0
755 601 1.0
876 602 1.0
1 603 1.0
181 604 1.0
622 605 1.0
522 606 1.0
233 607 1.0
233 608 1.0
600 609 1.0
831 610 1.0
782 611 1.0
782 612 1.0
968 613 1.0
388 614 1.0
755 615 1.0
223 616 1.0
876 617 1.0
823 618 1.0
979 619 1.0
233 620 1.0
755 621 1.0
522 622 1.0
251 623 1.0
622 624 1.0
316 625 1.0
1 626 1.0
790 627 1.0
876 628 1.0
782 629 1.0
569 630 1.0
1 631 1.0
600 632 1.0
876 633 1.0
786 634 1.0
561 635 1.0
201 636 1.0
430 637 1.0
339 638 1.0
979 639 1.0
339 640 1.0
162 641 1.0
876 642 1.0
876 643 1.0
782 644 1.0
860 645 1.0
776 646 1.0
419 647 1.0
316 648 1.0
834 649 1.0
492 650 1.0
139 651 1.0
823 652 1.0
316 653 1.0
500 654 1.0
316 655 1.0
786 656 1.0
755 657 1.0
331 658 1.0
831 659 1.0
942 660 1.0
419 661 1.0
948 662 1.0
636 663 1.0
522 664 1.0
361 665 1.0
500 666 1.0
786 667 1.0
622 668 1.0
419 669 1.0
401 670 1.0
331 671 1.0
949 672 1.0
1 673 1.0
561 674 1.0
430 675 1.0
500 676 1.0
887 677 1.0
331 678 1.0
500 679 1.0
522 680 1.0
297 681 1.0
790 682 1.0
755 683 1.0
776 684 1.0
636 685 1.0
636 686 1.0
844 687 1.0
165 688 1.0
786 689 1.0
522 690 1.0
500 691 1.0
43 692 1.0
316 693 1.0
782 694 1.0
419 695 1.0
782 696 1.0
58 697 1.0
331 698 1.0
339 699 1.0
831 700 1.0
419 701 1.0
52 702 1.0
1 703 1.0
500 704 1.0
81 705 1.0
75 706 1.0
331 707 1.0
500 708 1.0
755 709 1.0
561 710 1.0
763 711 1.0
948 712 1.0
776 713 1.0
331 714 1.0
139 715 1.0
500 716 1.0
865 717 1.0
445 718 1.0
601 719 1.0
41 720 1.0
430 721 1.0
500 722 1.0
786 723 1.0
419 724 1.0
831 725 1.0
500 726 1.0
500 727 1.0
430 728 1.0
600 729 1.0
715 730 1.0
776 731 1.0
823 732 1.0
790 733 1.0
773 734 1.0
755 735 1.0
316 736 1.0
52 737 1.0
831 738 1.0
782 739 1.0
201 740 1.0
535 741 1.0
361 742 1.0
782 743 1.0
782 744 1.0
636 745 1.0
773 746 1.0
316 747 1.0
419 748 1.0
419 749 1.0
316 750 1.0
297 751 1.0
419 752 1.0
948 753 1.0
773 754 1.0
52 755 1.0
823 756 1.0
823 757 1.0
522 758 1.0
316 759 1.0
782 760 1.0
790 761 1.0
500 762 1.0
569 763 1.0
43 764 1.0
601 765 1.0
419 766 1.0
41 767 1.0
522 768 1.0
755 769 1.0
419 770 1.0
58 771 1.0
755 772 1.0
430 773 1.0
316 774 1.0
162 775 1.0
310 776 1.0
561 777 1.0
445 778 1.0
773 779 1.0
52 780 1.0
773 781 1.0
1 782 1.0
522 783 1.0
786 784 1.0
569 785 1.0
600 786 1.0
755 787 1.0
755 788 1.0
569 789 1.0
786 790 1.0
782 791 1.0
388 792 1.0
773 793 1.0
782 794 1.0
310 795 1.0
561 796 1.0
316 797 1.0
917 798 1.0
831 799 1.0
776 800 1.0
773 801 1.0
419 802 1.0
773 803 1.0
419 804 1.0
52 805 1.0
782 806 1.0
601 807 1.0
773 808 1.0
316 809 1.0
468 810 1.0
786 811 1.0
715 812 1.0
423 813 1.0
786 814 1.0
506 815 1.0
233 816 1.0
831 817 1.0
776 818 1.0
201 819 1.0
419 820 1.0
76 821 1.0
223 822 1.0
1 823 1.0
636 824 1.0
782 825 1.0
876 826 1.0
331 827 1.0
782 828 1.0
522 829 1.0
786 830 1.0
445 831 1.0
500 832 1.0
641 833 1.0
844 834 1.0
500 835 1.0
876 836 1.0
776 837 1.0
500 838 1.0
233 839 1.0
600 840 1.0
316 841 1.0
979 842 1.0
100 843 1.0
888 844 1.0
782 845 1.0
419 846 1.0
220 847 1.0
968 848 1.0
331 849 1.0
331 850 1.0
982 851 1.0
823 852 1.0
636 853 1.0
755 854 1.0
569 855 1.0
52 856 1.0
776 857 1.0
139 858 1.0
331 859 1.0
665 860 1.0
790 861 1.0
773 862 1.0
201 863 1.0
522 864 1.0
445 865 1.0
52 866 1.0
331 867 1.0
831 868 1.0
201 869 1.0
755 870 1.0
601 871 1.0
887 872 1.0
823 873 1.0
1 874 1.0
979 875 1.0
782 876 1.0
1 877 1.0
786 878 1.0
876 879 1.0
64 880 1.0
823 881 1.0
790 882 1.0
782 883 1.0
887 884 1.0
310 885 1.0
600 886 1.0
223 887 1.0
468 888 1.0
220 889 1.0
715 890 1.0
500 891 1.0
942 892 1.0
1 893 1.0
786 894 1.0
64 895 1.0
445 896 1.0
773 897 1.0
445 898 1.0
220 899 1.0
331 900 1.0
64 901 1.0
388 902 1.0
419 903 1.0
876 904 1.0
601 905 1.0
876 906 1.0
181 907 1.0
601 908 1.0
949 909 1.0
500 910 1.0
430 911 1.0
316 912 1.0
600 913 1.0
569 914 1.0
223 915 1.0
419 916 1.0
43 917 1.0
468 918 1.0
64 919 1.0
569 920 1.0
64 921 1.0
773 922 1.0
500 923 1.0
500 924 1.0
52 925 1.0
1000 926 1.0
181 927 1.0
297 928 1.0
601 929 1.0
887 930 1.0
782 931 1.0
75 932 1.0
823 933 1.0
52 934 1.0
786 935 1.0
979 936 1.0
52 937 1.0
786 938 1.0
601 939 1.0
773 940 1.0
64 941 1.0
297 942 1.0
569 943 1.0
233 944 1.0
790 945 1.0
522 946 1.0
782 947 1.0
522 948 1.0
993 949 1.0
419 950 1.0
430 951 1.0
522 952 1.0
790 953 1.0
876 954 1.0
64 955 1.0
715 956 1.0
500 957 1.0
823 958 1.0
786 959 1.0
865 960 1.0
500 961 1.0
790 962 1.0
310 963 1.0
823 964 1.0
600 965 1.0
316 966 1.0
1 967 1.0
81 968 1.0
1 969 1.0
36 970 1.0
601 971 1.0
844 972 1.0
948 973 1.0
316 974 1.0
388 975 1.0
790 976 1.0
331 977 1.0
641 978 1.0
181 979 1.0
43 980 1.0
445 981 1.0
613 982 1.0
715 983 1.0
982 984 1.0
755 985 1.0
715 986 1.0
181 987 1.0
823 988 1.0
75 989 1.0
715 990 1.0
786 991 1.0
831 992 1.0
834 993 1.0
139 994 1.0
165 995 1.0
75 996 1.0
755 997 1.0
423 998 1.0
763 999 1.0
220 1000 1.0
Peso Total da MST = 999.0
